p cnf 35 90
c inputs: 1 2 3 4 5
c variables for gates: 6 ... 30
c outputs: 31 32 33 34 35
c random input: -1 2 -3 -4 5
6 -1 -3 0
-6 1 0
-6 3 0
7 -1 -4 0
-7 1 0
-7 4 0
8 -1 -5 0
-8 1 0
-8 5 0
9 -2 -3 0
-9 2 0
-9 3 0
10 -2 -4 0
-10 2 0
-10 4 0
11 -2 -5 0
-11 2 0
-11 5 0
12 -7 9 0
-12 7 0
-12 -9 0
13 -9 7 0
-13 9 0
-13 -7 0
14 12 13 0
-14 -12 0
-14 -13 0
15 -9 -7 0
-15 9 0
-15 7 0
16 -8 10 0
-16 8 0
-16 -10 0
17 -10 8 0
-17 10 0
-17 -8 0
18 16 17 0
-18 -16 0
-18 -17 0
19 -15 -18 0
-19 15 0
-19 18 0
20 15 18 0
-20 -15 0
-20 -18 0
21 20 19 0
-21 -20 0
-21 -19 0
22 -8 -15 0
-22 8 0
-22 15 0
23 -10 -15 0
-23 10 0
-23 15 0
24 -10 -8 0
-24 10 0
-24 8 0
25 24 23 0
-25 -24 0
-25 -23 0
26 22 -25 0
-26 -22 0
-26 25 0
27 11 26 0
-27 -11 0
-27 -26 0
28 -11 -26 0
-28 11 0
-28 26 0
29 27 28 0
-29 -27 0
-29 -28 0
30 -11 26 0
-30 11 0
-30 -26 0
-31 6 0
31 -6 0
-32 -14 0
32 14 0
-33 -21 0
33 21 0
-34 -29 0
34 29 0
-35 30 0
35 -30 0
-31 0
-32 0
-33 0
34 0
-35 0
